Version identifier: 20.1.0.0 | 2020-11-10 | 9bedb6d68
Tried aggregator 3 times.
MIP Presolve eliminated 2476 rows and 1304 columns.
MIP Presolve modified 5960 coefficients.
Aggregator did 244 substitutions.
Reduced MIP has 3689 rows, 2867 columns, and 12112 nonzeros.
Reduced MIP has 535 binaries, 2332 generals, 0 SOSs, and 0 indicators.
Presolve time = 0.04 sec. (16.72 ticks)
Probing fixed 80 vars, tightened 655 bounds.
Probing time = 0.01 sec. (1.47 ticks)
Cover probing fixed 0 vars, tightened 86 bounds.
Tried aggregator 2 times.
Detecting symmetries...
MIP Presolve eliminated 1574 rows and 122 columns.
MIP Presolve modified 251 coefficients.
Aggregator did 28 substitutions.
Reduced MIP has 2087 rows, 2717 columns, and 6804 nonzeros.
Reduced MIP has 809 binaries, 1908 generals, 0 SOSs, and 0 indicators.
Presolve time = 0.02 sec. (9.93 ticks)
Probing time = 0.00 sec. (0.64 ticks)
Clique table members: 165.
MIP emphasis: balance optimality and feasibility.
MIP search method: dynamic search.
Parallel mode: deterministic, using up to 24 threads.
Root relaxation solution time = 0.05 sec. (7.68 ticks)

        Nodes                                         Cuts/
   Node  Left     Objective  IInf  Best Integer    Best Bound    ItCnt     Gap

*     0+    0                           43.0000        0.0000           100.00%
      0     0        0.0000    78       43.0000        0.0000      595  100.00%
      0     0        0.0000   130       43.0000     Cuts: 381      951  100.00%
      0     0        0.0000   109       43.0000     Cuts: 147     1114  100.00%
*     0+    0                           32.0000        0.0000           100.00%
      0     0        0.0000   113       32.0000      Cuts: 68     1178  100.00%
*     0+    0                           17.0000        0.0000           100.00%
*     0+    0                           13.0000        0.0000           100.00%
      0     2        0.0000   113       13.0000       11.0000     1178   15.38%
Elapsed time = 1.31 sec. (311.78 ticks, tree = 0.02 MB, solutions = 4)
*    91+   12                           12.0000       11.0000             8.33%
*   210+   41                           11.0000       11.0000             0.00%

Cover cuts applied:  15
Implied bound cuts applied:  223
Flow cuts applied:  2
Mixed integer rounding cuts applied:  29
Zero-half cuts applied:  202
Lift and project cuts applied:  29
Gomory fractional cuts applied:  46

Root node processing (before b&c):
  Real time             =    1.24 sec. (310.88 ticks)
Parallel b&c, 24 threads:
  Real time             =    0.65 sec. (137.04 ticks)
  Sync time (average)   =    0.32 sec.
  Wait time (average)   =    0.00 sec.
                          ------------
Total (root+branch&cut) =    1.90 sec. (447.91 ticks)

Solution status = Optimal
Solution LB = 11
Solution UB = 11
Runtime = 1.9014 seconds
	Command being timed: "/home/min/git_repos/CS598MEBProject/CNT-ILP/build/cnt -s 2 ./output/k8_n40/simC_c1_k8_n40_u2_s2_del04.input-left.cnp"
	User time (seconds): 23.75
	System time (seconds): 0.31
	Percent of CPU this job got: 1227%
	Elapsed (wall clock) time (h:mm:ss or m:ss): 0:01.96
	Average shared text size (kbytes): 0
	Average unshared data size (kbytes): 0
	Average stack size (kbytes): 0
	Average total size (kbytes): 0
	Maximum resident set size (kbytes): 203540
	Average resident set size (kbytes): 0
	Major (requiring I/O) page faults: 0
	Minor (reclaiming a frame) page faults: 79381
	Voluntary context switches: 11177
	Involuntary context switches: 2999
	Swaps: 0
	File system inputs: 0
	File system outputs: 16
	Socket messages sent: 0
	Socket messages received: 0
	Signals delivered: 0
	Page size (bytes): 4096
	Exit status: 0
